NAME : mEgtspf.pid8141.gtsp.237592114.tour
COMMENT : Length = 237592114
COMMENT : Found by LKH [Keld Helsgaun] Sun Mar  9 16:18:20 2025
TYPE : TOUR
DIMENSION : 135
TOUR_SECTION
1
7
51
48
49
50
32
33
34
35
113
114
115
112
92
93
94
95
60
61
62
63
8
58
59
56
57
5
108
109
110
111
40
41
42
43
20
21
22
23
65
66
67
64
47
44
45
46
102
103
100
101
9
29
30
31
28
10
15
78
79
76
77
26
27
24
25
6
131
128
129
130
71
68
69
70
13
87
84
85
86
106
107
104
105
122
123
120
121
3
135
132
133
134
124
125
126
127
55
52
53
54
4
80
81
82
83
11
119
116
117
118
90
91
88
89
12
17
18
19
16
2
97
98
99
96
37
38
39
36
14
75
72
73
74
-1
EOF
